NAME : kroB100.10328.tour
COMMENT : Length = 10328
COMMENT : Found by LKH [Keld Helsgaun] Wed May 29 17:05:39 2013
TYPE : TOUR
DIMENSION : 20
TOUR_SECTION
98
29
3
85
40
69
75
65
37
54
55
24
96
92
31
51
33
83
74
94
-1
EOF
